(set-logic QF_SLIA)
(declare-fun var0 () String)
(assert (str.in_re var0 (re.++ ((_ re.loop 1 578) (re.++ (re.union (str.to_re "G") (re.union (str.to_re "l") (re.union (str.to_re "Xb") (str.to_re "5mY")))) (re.++ (re.union (str.to_re "In/") (re.union (str.to_re "h") (re.union (str.to_re "o") (str.to_re "4")))) (re.++ (re.union (str.to_re "ghE") (re.union (str.to_re "5") (re.union (str.to_re "&9") (str.to_re "4D")))) (re.union (str.to_re "7?n") (re.union (str.to_re "?") (re.union (str.to_re "r9;") (str.to_re "F")))))))) (re.++ ((_ re.loop 14 109) (re.++ (re.union (str.to_re "#R~") (re.union (str.to_re "8{{") (re.union (str.to_re "~") (str.to_re "p")))) (re.++ (re.union (str.to_re "ed") (re.union (str.to_re "M5") (re.union (str.to_re "~#Y") (str.to_re "l2]")))) (re.++ (re.union (str.to_re "B") (re.union (str.to_re "1F") (re.union (str.to_re "z_") (str.to_re "6")))) (re.union (str.to_re "ga") (re.union (str.to_re "~") (re.union (str.to_re "\u0022") (str.to_re "&")))))))) (re.++ ((_ re.loop 14 674) (re.++ (re.union (str.to_re "<iU") (re.union (str.to_re "(4Q") (re.union (str.to_re "aI&") (str.to_re "#G")))) (re.++ (re.union (str.to_re "*'*") (re.union (str.to_re "exQ") (re.union (str.to_re "~") (str.to_re "PH")))) (re.++ (re.union (str.to_re "RhV") (re.union (str.to_re "Y-") (re.union (str.to_re "&vv") (str.to_re "?^u")))) (re.union (str.to_re "B") (re.union (str.to_re "XT") (re.union (str.to_re "sC-") (str.to_re "YG+")))))))) ((_ re.loop 5 751) (re.++ (re.union (str.to_re "T(K") (re.union (str.to_re "Hc") (re.union (str.to_re "?E") (str.to_re "P~X")))) (re.++ (re.union (str.to_re "(^,") (re.union (str.to_re "y") (re.union (str.to_re "`M'") (str.to_re "y|S")))) (re.++ (re.union (str.to_re ")~") (re.union (str.to_re "X1") (re.union (str.to_re "0&F") (str.to_re "ww")))) (re.union (str.to_re "kq") (re.union (str.to_re "}+") (re.union (str.to_re "6e_") (str.to_re "C")))))))))))))
(assert (not (str.in_re var0 (re.++ ((_ re.loop 17 264) (re.++ (re.union (str.to_re "#") (re.union (str.to_re "*") (re.union (str.to_re "l@a") (str.to_re "u")))) (re.++ (re.union (str.to_re "{|h") (re.union (str.to_re "[") (re.union (str.to_re "WBC") (str.to_re "C&")))) (re.++ (re.union (str.to_re "a|") (re.union (str.to_re ")") (re.union (str.to_re "hW") (str.to_re ";")))) (re.union (str.to_re "@9.") (re.union (str.to_re "s0`") (re.union (str.to_re "w") (str.to_re "$|")))))))) (re.++ ((_ re.loop 6 479) (re.++ (re.union (str.to_re "Z") (re.union (str.to_re "6^") (re.union (str.to_re ")JC") (str.to_re "#O&")))) (re.++ (re.union (str.to_re "Ar;") (re.union (str.to_re "\u00228") (re.union (str.to_re "[^!") (str.to_re ".")))) (re.++ (re.union (str.to_re "O") (re.union (str.to_re "|") (re.union (str.to_re "`") (str.to_re "bg")))) (re.union (str.to_re "OV_") (re.union (str.to_re "u") (re.union (str.to_re "BZ>") (str.to_re "q")))))))) (re.++ ((_ re.loop 6 305) (re.++ (re.union (str.to_re "]<") (re.union (str.to_re "1") (re.union (str.to_re ";") (str.to_re "x7")))) (re.++ (re.union (str.to_re "(") (re.union (str.to_re "T#") (re.union (str.to_re "-") (str.to_re "^y6")))) (re.++ (re.union (str.to_re "}") (re.union (str.to_re "3") (re.union (str.to_re "\\-1") (str.to_re "tZ")))) (re.union (str.to_re "2") (re.union (str.to_re "dE") (re.union (str.to_re "|(") (str.to_re "Ae:")))))))) ((_ re.loop 12 415) (re.++ (re.union (str.to_re "W") (re.union (str.to_re "R*") (re.union (str.to_re "]u") (str.to_re "iLM")))) (re.++ (re.union (str.to_re "-3:") (re.union (str.to_re "F") (re.union (str.to_re "W+") (str.to_re "mA")))) (re.++ (re.union (str.to_re "fqL") (re.union (str.to_re "r") (re.union (str.to_re "+,") (str.to_re ";Mz")))) (re.union (str.to_re "|") (re.union (str.to_re "ox") (re.union (str.to_re "z") (str.to_re "8"))))))))))))))
(assert (not (str.in_re var0 (re.++ (re.* re.allchar) (re.++ (re.union (str.to_re "<") (re.union (str.to_re ">") (re.union (str.to_re "'") (re.union (str.to_re "\u0022") (str.to_re "&"))))) (re.* re.allchar))))))
(assert (<= 50 (str.len var0)))
(check-sat)
(get-model)
